GLPSOL--GLPK LP/MIP Solver 5.0
Parameter(s) specified in the command line:
 --lp ../modeles/15_64.lp --log 15_64.log
Reading problem data from '../modeles/15_64.lp'...
1021 rows, 1950 columns, 6765 non-zeros
960 integer variables, all of which are binary
2992 lines were read
GLPK Integer Optimizer 5.0
1021 rows, 1950 columns, 6765 non-zeros
960 integer variables, all of which are binary
Preprocessing...
930 constraint coefficient(s) were reduced
1021 rows, 1935 columns, 6750 non-zeros
960 integer variables, all of which are binary
Scaling...
 A: min|aij| =  3.906e-03  max|aij| =  4.000e+00  ratio =  1.024e+03
GM: min|aij| =  1.768e-01  max|aij| =  5.657e+00  ratio =  3.200e+01
EQ: min|aij| =  3.125e-02  max|aij| =  1.000e+00  ratio =  3.200e+01
2N: min|aij| =  3.125e-02  max|aij| =  1.638e+00  ratio =  5.243e+01
Constructing initial basis...
Size of triangular part is 1021
Solving LP relaxation...
GLPK Simplex Optimizer 5.0
1021 rows, 1935 columns, 6750 non-zeros
      0: obj =   3.000000000e+01 inf =   7.450e+01 (31)
    164: obj =  -9.583945179e-01 inf =   0.000e+00 (0)
*   445: obj =  -3.861111111e+00 inf =   1.939e-14 (0)
OPTIMAL LP SOLUTION FOUND
Integer optimization begins...
Long-step dual simplex will be used
+   445: mip =     not found yet >=              -inf        (1; 0)
+   463: >>>>>  -3.857142857e+00 >=  -3.861111111e+00   0.1% (4; 0)
+   465: >>>>>  -3.861111111e+00 >=  -3.861111111e+00 < 0.1% (3; 3)
+   465: mip =  -3.861111111e+00 >=     tree is empty   0.0% (0; 9)
INTEGER OPTIMAL SOLUTION FOUND
Time used:   0.0 secs
Memory used: 3.3 Mb (3428673 bytes)
